


























































































49 4 61 
1 44 43 
12 13 46 
54 64 9 
63 65 69 
55 10 71 
52 18 15 
20 21 6 
30 40 70 
25 60 56 
48 7 36 47 
22 51 74 39 
16 17 23 
3 45 11 28 
31 35 42 
33 50 57 
29 68 67 
58 53 2 
66 27 24 0 
19 5 41 8 
73 75 76 
72 26 59 
34 37 32 
38 14 62 
